(declare-datatypes ((Str 0)) (((SNil_Str ) (SCons_Str (SCons_Str_0 Int) (SCons_Str_1 Str)))))
(declare-fun fn_str_append (Str Str) Str)
(declare-fun fn_str_len (Str) Int)
(declare-datatypes ((Rec_first_Str_last_Str 0)) (((mk_Rec_first_Str_last_Str (mk_Rec_first_Str_last_Str_first Str) (mk_Rec_first_Str_last_Str_last Str)))))
(assert (forall ((p0 Str) (p1 Str)) (! (= (fn_str_append p0 p1) (ite ((_ is SNil_Str) p0) p1 (SCons_Str (SCons_Str_0 p0) (fn_str_append (SCons_Str_1 p0) p1)))) :pattern ((fn_str_append p0 p1)))))
(assert (forall ((p0 Str)) (! (= (fn_str_len p0) (ite ((_ is SNil_Str) p0) 0 (+ 1 (fn_str_len (SCons_Str_1 p0))))) :pattern ((fn_str_len p0)))))
(assert (forall ((q0 Str)) (= (fn_str_append SNil_Str q0) q0)))
(assert (forall ((q0 Str) (q1 Str)) (= (fn_str_len (fn_str_append q0 q1)) (+ (fn_str_len q0) (fn_str_len q1)))))
(assert (forall ((q0 Str) (q1 Str)) (= (fn_str_append (fn_str_append (mk_Rec_first_Str_last_Str_first (mk_Rec_first_Str_last_Str q0 q1)) (SCons_Str 32 SNil_Str)) (mk_Rec_first_Str_last_Str_last (mk_Rec_first_Str_last_Str q0 q1))) (fn_str_append (fn_str_append q0 (SCons_Str 32 SNil_Str)) q1))))
(assert (forall ((q0 Str)) (<= 0 (fn_str_len q0))))
(declare-const b0 Rec_first_Str_last_Str)
(assert (not (= (fn_str_len (fn_str_append (fn_str_append (mk_Rec_first_Str_last_Str_first b0) (SCons_Str 32 SNil_Str)) (mk_Rec_first_Str_last_Str_last b0))) (+ (+ (fn_str_len (mk_Rec_first_Str_last_Str_first b0)) 1) (fn_str_len (mk_Rec_first_Str_last_Str_last b0))))))
(check-sat)
